p cnf 965 2478
51 -2 -698 0
-51 2 0
-51 698 0
52 -51 -699 0
-52 51 0
-52 699 0
53 -5 -4 0
-53 5 0
-53 4 0
54 -53 -6 0
-54 53 0
-54 6 0
55 -700 -701 0
-55 700 0
-55 701 0
56 -702 -703 0
-56 702 0
-56 703 0
57 -56 -9 0
-57 56 0
-57 9 0
58 -704 -55 0
-58 704 0
-58 55 0
59 -10 -8 0
-59 10 0
-59 8 0
60 -59 -11 0
-60 59 0
-60 11 0
61 -705 -58 0
-61 705 0
-61 58 0
62 -12 -706 0
-62 12 0
-62 706 0
63 -62 -13 0
-63 62 0
-63 13 0
64 -707 -61 0
-64 707 0
-64 61 0
65 -14 -698 0
-65 14 0
-65 698 0
66 -65 -15 0
-66 65 0
-66 15 0
67 -708 -64 0
-67 708 0
-67 64 0
68 -17 -709 0
-68 17 0
-68 709 0
69 -68 -18 0
-69 68 0
-69 18 0
70 -710 -67 0
-70 710 0
-70 67 0
71 -19 -703 0
-71 19 0
-71 703 0
72 -71 -711 0
-72 71 0
-72 711 0
73 -712 -70 0
-73 712 0
-73 70 0
74 -22 -21 0
-74 22 0
-74 21 0
75 -74 -23 0
-75 74 0
-75 23 0
76 -713 -73 0
-76 713 0
-76 73 0
77 -714 -4 0
-77 714 0
-77 4 0
78 -77 -21 0
-78 77 0
-78 21 0
79 -715 -76 0
-79 715 0
-79 76 0
80 -25 -702 0
-80 25 0
-80 702 0
81 -80 -716 0
-81 80 0
-81 716 0
82 -717 -79 0
-82 717 0
-82 79 0
83 -711 -19 0
-83 711 0
-83 19 0
84 -83 -26 0
-84 83 0
-84 26 0
85 -718 -82 0
-85 718 0
-85 82 0
86 -4 -719 0
-86 4 0
-86 719 0
87 -86 -720 0
-87 86 0
-87 720 0
88 -721 -85 0
-88 721 0
-88 85 0
89 -28 -27 0
-89 28 0
-89 27 0
90 -89 -18 0
-90 89 0
-90 18 0
91 -722 -88 0
-91 722 0
-91 88 0
92 -29 -723 0
-92 29 0
-92 723 0
93 -92 -724 0
-93 92 0
-93 724 0
94 -725 -91 0
-94 725 0
-94 91 0
95 -726 -714 0
-95 726 0
-95 714 0
96 -95 -727 0
-96 95 0
-96 727 0
97 -728 -94 0
-97 728 0
-97 94 0
98 -706 -729 0
-98 706 0
-98 729 0
99 -98 -730 0
-99 98 0
-99 730 0
100 -731 -97 0
-100 731 0
-100 97 0
101 -732 -733 0
-101 732 0
-101 733 0
102 -101 -734 0
-102 101 0
-102 734 0
103 -735 -100 0
-103 735 0
-103 100 0
104 -33 -714 0
-104 33 0
-104 714 0
105 -104 -736 0
-105 104 0
-105 736 0
106 -737 -103 0
-106 737 0
-106 103 0
107 -738 -35 0
-107 738 0
-107 35 0
108 -107 -739 0
-108 107 0
-108 739 0
109 -740 -106 0
-109 740 0
-109 106 0
110 -34 -698 0
-110 34 0
-110 698 0
111 -110 -37 0
-111 110 0
-111 37 0
112 -741 -109 0
-112 741 0
-112 109 0
113 -38 -1 0
-113 38 0
-113 1 0
114 -113 -5 0
-114 113 0
-114 5 0
115 -742 -112 0
-115 742 0
-115 112 0
116 -40 -39 0
-116 40 0
-116 39 0
117 -116 -743 0
-117 116 0
-117 743 0
118 -744 -115 0
-118 744 0
-118 115 0
119 -745 -7 0
-119 745 0
-119 7 0
120 -119 -746 0
-120 119 0
-120 746 0
121 -747 -118 0
-121 747 0
-121 118 0
122 -748 -749 0
-122 748 0
-122 749 0
123 -122 -43 0
-123 122 0
-123 43 0
124 -750 -121 0
-124 750 0
-124 121 0
125 -40 -733 0
-125 40 0
-125 733 0
126 -125 -751 0
-126 125 0
-126 751 0
127 -752 -124 0
-127 752 0
-127 124 0
128 -753 -27 0
-128 753 0
-128 27 0
129 -128 -754 0
-129 128 0
-129 754 0
130 -755 -127 0
-130 755 0
-130 127 0
131 -730 -17 0
-131 730 0
-131 17 0
132 -131 -15 0
-132 131 0
-132 15 0
133 -756 -130 0
-133 756 0
-133 130 0
134 -738 -757 0
-134 738 0
-134 757 0
135 -134 -17 0
-135 134 0
-135 17 0
136 -758 -133 0
-136 758 0
-136 133 0
137 -10 -2 0
-137 10 0
-137 2 0
138 -137 -15 0
-138 137 0
-138 15 0
139 -759 -136 0
-139 759 0
-139 136 0
140 -760 -8 0
-140 760 0
-140 8 0
141 -140 -13 0
-141 140 0
-141 13 0
142 -761 -139 0
-142 761 0
-142 139 0
143 -732 -8 0
-143 732 0
-143 8 0
144 -143 -699 0
-144 143 0
-144 699 0
145 -762 -142 0
-145 762 0
-145 142 0
146 -751 -14 0
-146 751 0
-146 14 0
147 -146 -46 0
-147 146 0
-147 46 0
148 -763 -145 0
-148 763 0
-148 145 0
149 -35 -733 0
-149 35 0
-149 733 0
150 -149 -727 0
-150 149 0
-150 727 0
151 -764 -148 0
-151 764 0
-151 148 0
152 -765 -714 0
-152 765 0
-152 714 0
153 -152 -31 0
-153 152 0
-153 31 0
154 -766 -151 0
-154 766 0
-154 151 0
155 -767 -768 0
-155 767 0
-155 768 0
156 -155 -769 0
-156 155 0
-156 769 0
157 -770 -154 0
-157 770 0
-157 154 0
158 -39 -771 0
-158 39 0
-158 771 0
159 -158 -38 0
-159 158 0
-159 38 0
160 -772 -157 0
-160 772 0
-160 157 0
161 -7 -729 0
-161 7 0
-161 729 0
162 -161 -760 0
-162 161 0
-162 760 0
163 -773 -160 0
-163 773 0
-163 160 0
164 -760 -5 0
-164 760 0
-164 5 0
165 -164 -730 0
-165 164 0
-165 730 0
166 -774 -163 0
-166 774 0
-166 163 0
167 -45 -33 0
-167 45 0
-167 33 0
168 -167 -13 0
-168 167 0
-168 13 0
169 -775 -166 0
-169 775 0
-169 166 0
170 -42 -720 0
-170 42 0
-170 720 0
171 -170 -769 0
-171 170 0
-171 769 0
172 -776 -169 0
-172 776 0
-172 169 0
173 -777 -4 0
-173 777 0
-173 4 0
174 -173 -38 0
-174 173 0
-174 38 0
175 -778 -172 0
-175 778 0
-175 172 0
176 -44 -8 0
-176 44 0
-176 8 0
177 -176 -15 0
-177 176 0
-177 15 0
178 -779 -175 0
-178 779 0
-178 175 0
179 -29 -733 0
-179 29 0
-179 733 0
180 -179 -26 0
-180 179 0
-180 26 0
181 -780 -178 0
-181 780 0
-181 178 0
182 -781 -30 0
-182 781 0
-182 30 0
183 -182 -736 0
-183 182 0
-183 736 0
184 -782 -181 0
-184 782 0
-184 181 0
185 -726 -27 0
-185 726 0
-185 27 0
186 -185 -46 0
-186 185 0
-186 46 0
187 -783 -184 0
-187 783 0
-187 184 0
188 -760 -32 0
-188 760 0
-188 32 0
189 -188 -727 0
-189 188 0
-189 727 0
190 -784 -187 0
-190 784 0
-190 187 0
191 -27 -754 0
-191 27 0
-191 754 0
192 -191 -49 0
-192 191 0
-192 49 0
193 -785 -190 0
-193 785 0
-193 190 0
194 -44 -24 0
-194 44 0
-194 24 0
195 -194 -47 0
-195 194 0
-195 47 0
196 -786 -193 0
-196 786 0
-196 193 0
197 -743 -703 0
-197 743 0
-197 703 0
198 -197 -17 0
-198 197 0
-198 17 0
199 -787 -196 0
-199 787 0
-199 196 0
200 -738 -714 0
-200 738 0
-200 714 0
201 -200 -711 0
-201 200 0
-201 711 0
202 -788 -199 0
-202 788 0
-202 199 0
203 -50 -730 0
-203 50 0
-203 730 0
204 -203 -28 0
-204 203 0
-204 28 0
205 -789 -202 0
-205 789 0
-205 202 0
206 -748 -1 0
-206 748 0
-206 1 0
207 -206 -768 0
-207 206 0
-207 768 0
208 -790 -205 0
-208 790 0
-208 205 0
209 -9 -7 0
-209 9 0
-209 7 0
210 -209 -769 0
-210 209 0
-210 769 0
211 -791 -208 0
-211 791 0
-211 208 0
212 -38 -706 0
-212 38 0
-212 706 0
213 -212 -727 0
-213 212 0
-213 727 0
214 -792 -211 0
-214 792 0
-214 211 0
215 -26 -716 0
-215 26 0
-215 716 0
216 -215 -746 0
-216 215 0
-216 746 0
217 -793 -214 0
-217 793 0
-217 214 0
218 -749 -14 0
-218 749 0
-218 14 0
219 -218 -738 0
-219 218 0
-219 738 0
220 -794 -217 0
-220 794 0
-220 217 0
221 -21 -7 0
-221 21 0
-221 7 0
222 -221 -739 0
-222 221 0
-222 739 0
223 -795 -220 0
-223 795 0
-223 220 0
224 -32 -12 0
-224 32 0
-224 12 0
225 -224 -28 0
-225 224 0
-225 28 0
226 -796 -223 0
-226 796 0
-226 223 0
227 -32 -706 0
-227 32 0
-227 706 0
228 -227 -746 0
-228 227 0
-228 746 0
229 -797 -226 0
-229 797 0
-229 226 0
230 -36 -703 0
-230 36 0
-230 703 0
231 -230 -798 0
-231 230 0
-231 798 0
232 -799 -229 0
-232 799 0
-232 229 0
233 -21 -20 0
-233 21 0
-233 20 0
234 -233 -720 0
-234 233 0
-234 720 0
235 -800 -232 0
-235 800 0
-235 232 0
236 -26 -16 0
-236 26 0
-236 16 0
237 -236 -720 0
-237 236 0
-237 720 0
238 -801 -235 0
-238 801 0
-238 235 0
239 -798 -768 0
-239 798 0
-239 768 0
240 -239 -13 0
-240 239 0
-240 13 0
241 -802 -238 0
-241 802 0
-241 238 0
242 -47 -10 0
-242 47 0
-242 10 0
243 -242 -15 0
-243 242 0
-243 15 0
244 -803 -241 0
-244 803 0
-244 241 0
245 -720 -1 0
-245 720 0
-245 1 0
246 -245 -724 0
-246 245 0
-246 724 0
247 -804 -244 0
-247 804 0
-247 244 0
248 -45 -743 0
-248 45 0
-248 743 0
249 -248 -739 0
-249 248 0
-249 739 0
250 -805 -247 0
-250 805 0
-250 247 0
251 -806 -5 0
-251 806 0
-251 5 0
252 -251 -724 0
-252 251 0
-252 724 0
253 -807 -250 0
-253 807 0
-253 250 0
254 -808 -7 0
-254 808 0
-254 7 0
255 -254 -34 0
-255 254 0
-255 34 0
256 -809 -253 0
-256 809 0
-256 253 0
257 -48 -14 0
-257 48 0
-257 14 0
258 -257 -810 0
-258 257 0
-258 810 0
259 -811 -256 0
-259 811 0
-259 256 0
260 -40 -732 0
-260 40 0
-260 732 0
261 -260 -34 0
-261 260 0
-261 34 0
262 -812 -259 0
-262 812 0
-262 259 0
263 -754 -757 0
-263 754 0
-263 757 0
264 -263 -716 0
-264 263 0
-264 716 0
265 -813 -262 0
-265 813 0
-265 262 0
266 -753 -748 0
-266 753 0
-266 748 0
267 -266 -814 0
-267 266 0
-267 814 0
268 -815 -265 0
-268 815 0
-268 265 0
269 -734 -25 0
-269 734 0
-269 25 0
270 -269 -727 0
-270 269 0
-270 727 0
271 -816 -268 0
-271 816 0
-271 268 0
272 -720 -4 0
-272 720 0
-272 4 0
273 -272 -769 0
-273 272 0
-273 769 0
274 -817 -271 0
-274 817 0
-274 271 0
275 -729 -698 0
-275 729 0
-275 698 0
276 -275 -15 0
-276 275 0
-276 15 0
277 -818 -274 0
-277 818 0
-277 274 0
278 -50 -767 0
-278 50 0
-278 767 0
279 -278 -720 0
-279 278 0
-279 720 0
280 -819 -277 0
-280 819 0
-280 277 0
281 -24 -806 0
-281 24 0
-281 806 0
282 -281 -820 0
-282 281 0
-282 820 0
283 -821 -280 0
-283 821 0
-283 280 0
284 -50 -757 0
-284 50 0
-284 757 0
285 -284 -734 0
-285 284 0
-285 734 0
286 -822 -283 0
-286 822 0
-286 283 0
287 -39 -10 0
-287 39 0
-287 10 0
288 -287 -32 0
-288 287 0
-288 32 0
289 -823 -286 0
-289 823 0
-289 286 0
290 -743 -757 0
-290 743 0
-290 757 0
291 -290 -724 0
-291 290 0
-291 724 0
292 -824 -289 0
-292 824 0
-292 289 0
293 -810 -36 0
-293 810 0
-293 36 0
294 -293 -814 0
-294 293 0
-294 814 0
295 -825 -292 0
-295 825 0
-295 292 0
296 -745 -10 0
-296 745 0
-296 10 0
297 -296 -736 0
-297 296 0
-297 736 0
298 -826 -295 0
-298 826 0
-298 295 0
299 -33 -732 0
-299 33 0
-299 732 0
300 -299 -43 0
-300 299 0
-300 43 0
301 -827 -298 0
-301 827 0
-301 298 0
302 -19 -702 0
-302 19 0
-302 702 0
303 -302 -11 0
-303 302 0
-303 11 0
304 -828 -301 0
-304 828 0
-304 301 0
305 -47 -698 0
-305 47 0
-305 698 0
306 -305 -25 0
-306 305 0
-306 25 0
307 -829 -304 0
-307 829 0
-307 304 0
308 -42 -771 0
-308 42 0
-308 771 0
309 -308 -820 0
-309 308 0
-309 820 0
310 -830 -307 0
-310 830 0
-310 307 0
311 -34 -757 0
-311 34 0
-311 757 0
312 -311 -720 0
-312 311 0
-312 720 0
313 -831 -310 0
-313 831 0
-313 310 0
314 -706 -4 0
-314 706 0
-314 4 0
315 -314 -724 0
-315 314 0
-315 724 0
316 -832 -313 0
-316 832 0
-316 313 0
317 -38 -771 0
-317 38 0
-317 771 0
318 -317 -36 0
-318 317 0
-318 36 0
319 -833 -316 0
-319 833 0
-319 316 0
320 -42 -749 0
-320 42 0
-320 749 0
321 -320 -716 0
-321 320 0
-321 716 0
322 -834 -319 0
-322 834 0
-322 319 0
323 -835 -702 0
-323 835 0
-323 702 0
324 -323 -37 0
-324 323 0
-324 37 0
325 -836 -322 0
-325 836 0
-325 322 0
326 -35 -12 0
-326 35 0
-326 12 0
327 -326 -751 0
-327 326 0
-327 751 0
328 -837 -325 0
-328 837 0
-328 325 0
329 -749 -20 0
-329 749 0
-329 20 0
330 -329 -699 0
-330 329 0
-330 699 0
331 -838 -328 0
-331 838 0
-331 328 0
332 -38 -754 0
-332 38 0
-332 754 0
333 -332 -13 0
-333 332 0
-333 13 0
334 -839 -331 0
-334 839 0
-334 331 0
335 -33 -719 0
-335 33 0
-335 719 0
336 -335 -31 0
-336 335 0
-336 31 0
337 -840 -334 0
-337 840 0
-337 334 0
338 -30 -10 0
-338 30 0
-338 10 0
339 -338 -40 0
-339 338 0
-339 40 0
340 -841 -337 0
-340 841 0
-340 337 0
341 -35 -768 0
-341 35 0
-341 768 0
342 -341 -15 0
-342 341 0
-342 15 0
343 -842 -340 0
-343 842 0
-343 340 0
344 -13 -706 0
-344 13 0
-344 706 0
345 -344 -724 0
-345 344 0
-345 724 0
346 -843 -343 0
-346 843 0
-346 343 0
347 -50 -10 0
-347 50 0
-347 10 0
348 -347 -11 0
-348 347 0
-348 11 0
349 -844 -346 0
-349 844 0
-349 346 0
350 -781 -42 0
-350 781 0
-350 42 0
351 -350 -760 0
-351 350 0
-351 760 0
352 -845 -349 0
-352 845 0
-352 349 0
353 -808 -798 0
-353 808 0
-353 798 0
354 -353 -820 0
-354 353 0
-354 820 0
355 -846 -352 0
-355 846 0
-355 352 0
356 -777 -702 0
-356 777 0
-356 702 0
357 -356 -25 0
-357 356 0
-357 25 0
358 -847 -355 0
-358 847 0
-358 355 0
359 -814 -1 0
-359 814 0
-359 1 0
360 -359 -6 0
-360 359 0
-360 6 0
361 -848 -358 0
-361 848 0
-361 358 0
362 -739 -703 0
-362 739 0
-362 703 0
363 -362 -724 0
-363 362 0
-363 724 0
364 -849 -361 0
-364 849 0
-364 361 0
365 -808 -709 0
-365 808 0
-365 709 0
366 -365 -724 0
-366 365 0
-366 724 0
367 -850 -364 0
-367 850 0
-367 364 0
368 -40 -34 0
-368 40 0
-368 34 0
369 -368 -724 0
-369 368 0
-369 724 0
370 -851 -367 0
-370 851 0
-370 367 0
371 -40 -738 0
-371 40 0
-371 738 0
372 -371 -28 0
-372 371 0
-372 28 0
373 -852 -370 0
-373 852 0
-373 370 0
374 -767 -719 0
-374 767 0
-374 719 0
375 -374 -18 0
-375 374 0
-375 18 0
376 -853 -373 0
-376 853 0
-376 373 0
377 -41 -720 0
-377 41 0
-377 720 0
378 -377 -746 0
-378 377 0
-378 746 0
379 -854 -376 0
-379 854 0
-379 376 0
380 -31 -7 0
-380 31 0
-380 7 0
381 -380 -17 0
-381 380 0
-381 17 0
382 -855 -379 0
-382 855 0
-382 379 0
383 -42 -699 0
-383 42 0
-383 699 0
384 -383 -28 0
-384 383 0
-384 28 0
385 -856 -382 0
-385 856 0
-385 382 0
386 -43 -24 0
-386 43 0
-386 24 0
387 -386 -23 0
-387 386 0
-387 23 0
388 -857 -385 0
-388 857 0
-388 385 0
389 -305 -22 0
-389 305 0
-389 22 0
390 -858 -388 0
-390 858 0
-390 388 0
391 -12 -10 0
-391 12 0
-391 10 0
392 -391 -8 0
-392 391 0
-392 8 0
393 -859 -390 0
-393 859 0
-393 390 0
394 -37 -711 0
-394 37 0
-394 711 0
395 -394 -760 0
-395 394 0
-395 760 0
396 -860 -393 0
-396 860 0
-396 393 0
397 -835 -7 0
-397 835 0
-397 7 0
398 -397 -798 0
-398 397 0
-398 798 0
399 -861 -396 0
-399 861 0
-399 396 0
400 -35 -703 0
-400 35 0
-400 703 0
401 -400 -6 0
-401 400 0
-401 6 0
402 -862 -399 0
-402 862 0
-402 399 0
403 -17 -13 0
-403 17 0
-403 13 0
404 -403 -769 0
-404 403 0
-404 769 0
405 -863 -402 0
-405 863 0
-405 402 0
406 -35 -754 0
-406 35 0
-406 754 0
407 -406 -719 0
-407 406 0
-407 719 0
408 -864 -405 0
-408 864 0
-408 405 0
409 -814 -810 0
-409 814 0
-409 810 0
410 -409 -723 0
-410 409 0
-410 723 0
411 -865 -408 0
-411 865 0
-411 408 0
412 -7 -5 0
-412 7 0
-412 5 0
413 -412 -37 0
-413 412 0
-413 37 0
414 -866 -411 0
-414 866 0
-414 411 0
415 -745 -698 0
-415 745 0
-415 698 0
416 -415 -6 0
-416 415 0
-416 6 0
417 -867 -414 0
-417 867 0
-417 414 0
418 -50 -12 0
-418 50 0
-418 12 0
419 -418 -40 0
-419 418 0
-419 40 0
420 -868 -417 0
-420 868 0
-420 417 0
421 -20 -4 0
-421 20 0
-421 4 0
422 -421 -820 0
-422 421 0
-422 820 0
423 -869 -420 0
-423 869 0
-423 420 0
424 -870 -702 0
-424 870 0
-424 702 0
425 -424 -6 0
-425 424 0
-425 6 0
426 -871 -423 0
-426 871 0
-426 423 0
427 -29 -26 0
-427 29 0
-427 26 0
428 -427 -49 0
-428 427 0
-428 49 0
429 -872 -426 0
-429 872 0
-429 426 0
430 -724 -729 0
-430 724 0
-430 729 0
431 -430 -727 0
-431 430 0
-431 727 0
432 -873 -429 0
-432 873 0
-432 429 0
433 -810 -835 0
-433 810 0
-433 835 0
434 -433 -769 0
-434 433 0
-434 769 0
435 -874 -432 0
-435 874 0
-435 432 0
436 -34 -10 0
-436 34 0
-436 10 0
437 -436 -724 0
-437 436 0
-437 724 0
438 -875 -435 0
-438 875 0
-438 435 0
439 -197 -32 0
-439 197 0
-439 32 0
440 -876 -438 0
-440 876 0
-440 438 0
441 -751 -757 0
-441 751 0
-441 757 0
442 -441 -13 0
-442 441 0
-442 13 0
443 -877 -440 0
-443 877 0
-443 440 0
444 -16 -698 0
-444 16 0
-444 698 0
445 -444 -727 0
-445 444 0
-445 727 0
446 -878 -443 0
-446 878 0
-446 443 0
447 -26 -22 0
-447 26 0
-447 22 0
448 -447 -706 0
-448 447 0
-448 706 0
449 -879 -446 0
-449 879 0
-449 446 0
450 -734 -733 0
-450 734 0
-450 733 0
451 -450 -760 0
-451 450 0
-451 760 0
452 -880 -449 0
-452 880 0
-452 449 0
453 -38 -9 0
-453 38 0
-453 9 0
454 -453 -730 0
-454 453 0
-454 730 0
455 -881 -452 0
-455 881 0
-455 452 0
456 -738 -698 0
-456 738 0
-456 698 0
457 -456 -43 0
-457 456 0
-457 43 0
458 -882 -455 0
-458 882 0
-458 455 0
459 -48 -719 0
-459 48 0
-459 719 0
460 -459 -3 0
-460 459 0
-460 3 0
461 -883 -458 0
-461 883 0
-461 458 0
462 -714 -16 0
-462 714 0
-462 16 0
463 -462 -13 0
-463 462 0
-463 13 0
464 -884 -461 0
-464 884 0
-464 461 0
465 -37 -736 0
-465 37 0
-465 736 0
466 -465 -2 0
-466 465 0
-466 2 0
467 -885 -464 0
-467 885 0
-467 464 0
468 -41 -5 0
-468 41 0
-468 5 0
469 -468 -757 0
-469 468 0
-469 757 0
470 -886 -467 0
-470 886 0
-470 467 0
471 -781 -806 0
-471 781 0
-471 806 0
472 -471 -15 0
-472 471 0
-472 15 0
473 -887 -470 0
-473 887 0
-473 470 0
474 -47 -757 0
-474 47 0
-474 757 0
475 -474 -15 0
-475 474 0
-475 15 0
476 -888 -473 0
-476 888 0
-476 473 0
477 -49 -808 0
-477 49 0
-477 808 0
478 -477 -727 0
-478 477 0
-478 727 0
479 -889 -476 0
-479 889 0
-479 476 0
480 -743 -706 0
-480 743 0
-480 706 0
481 -480 -11 0
-481 480 0
-481 11 0
482 -890 -479 0
-482 890 0
-482 479 0
483 -10 -729 0
-483 10 0
-483 729 0
484 -483 -11 0
-484 483 0
-484 11 0
485 -891 -482 0
-485 891 0
-485 482 0
486 -757 -8 0
-486 757 0
-486 8 0
487 -486 -9 0
-487 486 0
-487 9 0
488 -892 -485 0
-488 892 0
-488 485 0
489 -42 -27 0
-489 42 0
-489 27 0
490 -489 -29 0
-490 489 0
-490 29 0
491 -893 -488 0
-491 893 0
-491 488 0
492 -808 -10 0
-492 808 0
-492 10 0
493 -492 -727 0
-493 492 0
-493 727 0
494 -894 -491 0
-494 894 0
-494 491 0
495 -45 -37 0
-495 45 0
-495 37 0
496 -495 -727 0
-496 495 0
-496 727 0
497 -895 -494 0
-497 895 0
-497 494 0
498 -37 -8 0
-498 37 0
-498 8 0
499 -498 -820 0
-499 498 0
-499 820 0
500 -896 -497 0
-500 896 0
-500 497 0
501 -765 -20 0
-501 765 0
-501 20 0
502 -501 -17 0
-502 501 0
-502 17 0
503 -897 -500 0
-503 897 0
-503 500 0
504 -743 -12 0
-504 743 0
-504 12 0
505 -504 -15 0
-505 504 0
-505 15 0
506 -898 -503 0
-506 898 0
-506 503 0
507 -38 -20 0
-507 38 0
-507 20 0
508 -507 -34 0
-508 507 0
-508 34 0
509 -899 -506 0
-509 899 0
-509 506 0
510 -777 -729 0
-510 777 0
-510 729 0
511 -510 -2 0
-511 510 0
-511 2 0
512 -900 -509 0
-512 900 0
-512 509 0
513 -49 -835 0
-513 49 0
-513 835 0
514 -513 -820 0
-514 513 0
-514 820 0
515 -901 -512 0
-515 901 0
-515 512 0
516 -760 -29 0
-516 760 0
-516 29 0
517 -516 -11 0
-517 516 0
-517 11 0
518 -902 -515 0
-518 902 0
-518 515 0
519 -465 -727 0
-519 465 0
-519 727 0
520 -903 -518 0
-520 903 0
-520 518 0
521 -45 -14 0
-521 45 0
-521 14 0
522 -521 -706 0
-522 521 0
-522 706 0
523 -904 -520 0
-523 904 0
-523 520 0
524 -738 -709 0
-524 738 0
-524 709 0
525 -524 -8 0
-525 524 0
-525 8 0
526 -905 -523 0
-526 905 0
-526 523 0
527 -835 -12 0
-527 835 0
-527 12 0
528 -527 -760 0
-528 527 0
-528 760 0
529 -906 -526 0
-529 906 0
-529 526 0
530 -714 -835 0
-530 714 0
-530 835 0
531 -530 -3 0
-531 530 0
-531 3 0
532 -907 -529 0
-532 907 0
-532 529 0
533 -30 -714 0
-533 30 0
-533 714 0
534 -533 -743 0
-534 533 0
-534 743 0
535 -908 -532 0
-535 908 0
-535 532 0
536 -730 -754 0
-536 730 0
-536 754 0
537 -536 -15 0
-537 536 0
-537 15 0
538 -909 -535 0
-538 909 0
-538 535 0
539 -10 -719 0
-539 10 0
-539 719 0
540 -539 -746 0
-540 539 0
-540 746 0
541 -910 -538 0
-541 910 0
-541 538 0
542 -768 -2 0
-542 768 0
-542 2 0
543 -542 -45 0
-543 542 0
-543 45 0
544 -911 -541 0
-544 911 0
-544 541 0
545 -745 -30 0
-545 745 0
-545 30 0
546 -545 -17 0
-546 545 0
-546 17 0
547 -912 -544 0
-547 912 0
-547 544 0
548 -233 -9 0
-548 233 0
-548 9 0
549 -913 -547 0
-549 913 0
-549 547 0
550 -810 -38 0
-550 810 0
-550 38 0
551 -550 -20 0
-551 550 0
-551 20 0
552 -914 -549 0
-552 914 0
-552 549 0
553 -709 -8 0
-553 709 0
-553 8 0
554 -553 -18 0
-554 553 0
-554 18 0
555 -915 -552 0
-555 915 0
-555 552 0
556 -38 -733 0
-556 38 0
-556 733 0
557 -556 -46 0
-557 556 0
-557 46 0
558 -916 -555 0
-558 916 0
-558 555 0
559 -760 -22 0
-559 760 0
-559 22 0
560 -559 -9 0
-560 559 0
-560 9 0
561 -917 -558 0
-561 917 0
-561 558 0
562 -50 -24 0
-562 50 0
-562 24 0
563 -562 -754 0
-563 562 0
-563 754 0
564 -918 -561 0
-564 918 0
-564 561 0
565 -42 -777 0
-565 42 0
-565 777 0
566 -565 -40 0
-566 565 0
-566 40 0
567 -919 -564 0
-567 919 0
-567 564 0
568 -556 -714 0
-568 556 0
-568 714 0
569 -920 -567 0
-569 920 0
-569 567 0
570 -39 -709 0
-570 39 0
-570 709 0
571 -570 -48 0
-571 570 0
-571 48 0
572 -921 -569 0
-572 921 0
-572 569 0
573 -34 -1 0
-573 34 0
-573 1 0
574 -573 -11 0
-574 573 0
-574 11 0
575 -922 -572 0
-575 922 0
-575 572 0
576 -726 -16 0
-576 726 0
-576 16 0
577 -576 -749 0
-577 576 0
-577 749 0
578 -923 -575 0
-578 923 0
-578 575 0
579 -709 -729 0
-579 709 0
-579 729 0
580 -579 -736 0
-580 579 0
-580 736 0
581 -924 -578 0
-581 924 0
-581 578 0
582 -814 -43 0
-582 814 0
-582 43 0
583 -582 -45 0
-583 582 0
-583 45 0
584 -925 -581 0
-584 925 0
-584 581 0
585 -732 -14 0
-585 732 0
-585 14 0
586 -585 -11 0
-586 585 0
-586 11 0
587 -926 -584 0
-587 926 0
-587 584 0
588 -711 -16 0
-588 711 0
-588 16 0
589 -588 -814 0
-589 588 0
-589 814 0
590 -927 -587 0
-590 927 0
-590 587 0
591 -36 -870 0
-591 36 0
-591 870 0
592 -591 -37 0
-592 591 0
-592 37 0
593 -928 -590 0
-593 928 0
-593 590 0
594 -359 -45 0
-594 359 0
-594 45 0
595 -929 -593 0
-595 929 0
-595 593 0
596 -810 -703 0
-596 810 0
-596 703 0
597 -596 -751 0
-597 596 0
-597 751 0
598 -930 -595 0
-598 930 0
-598 595 0
599 -749 -19 0
-599 749 0
-599 19 0
600 -599 -711 0
-600 599 0
-600 711 0
601 -931 -598 0
-601 931 0
-601 598 0
602 -743 -26 0
-602 743 0
-602 26 0
603 -602 -719 0
-603 602 0
-603 719 0
604 -932 -601 0
-604 932 0
-604 601 0
605 -39 -767 0
-605 39 0
-605 767 0
606 -605 -739 0
-606 605 0
-606 739 0
607 -933 -604 0
-607 933 0
-607 604 0
608 -870 -7 0
-608 870 0
-608 7 0
609 -608 -37 0
-609 608 0
-609 37 0
610 -934 -607 0
-610 934 0
-610 607 0
611 -709 -7 0
-611 709 0
-611 7 0
612 -611 -739 0
-612 611 0
-612 739 0
613 -935 -610 0
-613 935 0
-613 610 0
614 -41 -736 0
-614 41 0
-614 736 0
615 -614 -17 0
-615 614 0
-615 17 0
616 -936 -613 0
-616 936 0
-616 613 0
617 -49 -32 0
-617 49 0
-617 32 0
618 -617 -18 0
-618 617 0
-618 18 0
619 -937 -616 0
-619 937 0
-619 616 0
620 -29 -835 0
-620 29 0
-620 835 0
621 -620 -820 0
-621 620 0
-621 820 0
622 -938 -619 0
-622 938 0
-622 619 0
623 -38 -10 0
-623 38 0
-623 10 0
624 -623 -11 0
-624 623 0
-624 11 0
625 -939 -622 0
-625 939 0
-625 622 0
626 -8 -5 0
-626 8 0
-626 5 0
627 -626 -814 0
-627 626 0
-627 814 0
628 -940 -625 0
-628 940 0
-628 625 0
629 -771 -739 0
-629 771 0
-629 739 0
630 -629 -18 0
-630 629 0
-630 18 0
631 -941 -628 0
-631 941 0
-631 628 0
632 -711 -3 0
-632 711 0
-632 3 0
633 -632 -723 0
-633 632 0
-633 723 0
634 -942 -631 0
-634 942 0
-634 631 0
635 -47 -777 0
-635 47 0
-635 777 0
636 -635 -760 0
-636 635 0
-636 760 0
637 -943 -634 0
-637 943 0
-637 634 0
638 -749 -29 0
-638 749 0
-638 29 0
639 -638 -34 0
-639 638 0
-639 34 0
640 -944 -637 0
-640 944 0
-640 637 0
641 -24 -16 0
-641 24 0
-641 16 0
642 -641 -734 0
-642 641 0
-642 734 0
643 -945 -640 0
-643 945 0
-643 640 0
644 -40 -730 0
-644 40 0
-644 730 0
645 -644 -11 0
-645 644 0
-645 11 0
646 -946 -643 0
-646 946 0
-646 643 0
647 -781 -36 0
-647 781 0
-647 36 0
648 -647 -730 0
-648 647 0
-648 730 0
649 -947 -646 0
-649 947 0
-649 646 0
650 -706 -2 0
-650 706 0
-650 2 0
651 -650 -746 0
-651 650 0
-651 746 0
652 -948 -649 0
-652 948 0
-652 649 0
653 -730 -806 0
-653 730 0
-653 806 0
654 -653 -46 0
-654 653 0
-654 46 0
655 -949 -652 0
-655 949 0
-655 652 0
656 -749 -726 0
-656 749 0
-656 726 0
657 -656 -38 0
-657 656 0
-657 38 0
658 -950 -655 0
-658 950 0
-658 655 0
659 -27 -733 0
-659 27 0
-659 733 0
660 -659 -714 0
-660 659 0
-660 714 0
661 -951 -658 0
-661 951 0
-661 658 0
662 -37 -734 0
-662 37 0
-662 734 0
663 -662 -730 0
-663 662 0
-663 730 0
664 -952 -661 0
-664 952 0
-664 661 0
665 -748 -36 0
-665 748 0
-665 36 0
666 -665 -814 0
-666 665 0
-666 814 0
667 -953 -664 0
-667 953 0
-667 664 0
668 -954 -729 0
-668 954 0
-668 729 0
669 -668 -760 0
-669 668 0
-669 760 0
670 -955 -667 0
-670 955 0
-670 667 0
671 -32 -30 0
-671 32 0
-671 30 0
672 -671 -2 0
-672 671 0
-672 2 0
673 -956 -670 0
-673 956 0
-673 670 0
674 -748 -6 0
-674 748 0
-674 6 0
675 -674 -724 0
-675 674 0
-675 724 0
676 -957 -673 0
-676 957 0
-676 673 0
677 -734 -726 0
-677 734 0
-677 726 0
678 -677 -23 0
-678 677 0
-678 23 0
679 -958 -676 0
-679 958 0
-679 676 0
680 -22 -19 0
-680 22 0
-680 19 0
681 -680 -45 0
-681 680 0
-681 45 0
682 -959 -679 0
-682 959 0
-682 679 0
683 -41 -716 0
-683 41 0
-683 716 0
684 -683 -769 0
-684 683 0
-684 769 0
685 -960 -682 0
-685 960 0
-685 682 0
686 -754 -2 0
-686 754 0
-686 2 0
687 -686 -15 0
-687 686 0
-687 15 0
688 -961 -685 0
-688 961 0
-688 685 0
689 -962 -26 0
-689 962 0
-689 26 0
690 -689 -17 0
-690 689 0
-690 17 0
691 -963 -688 0
-691 963 0
-691 688 0
692 -765 -10 0
-692 765 0
-692 10 0
693 -692 -49 0
-693 692 0
-693 49 0
694 -964 -691 0
-694 964 0
-694 691 0
695 -42 -810 0
-695 42 0
-695 810 0
696 -695 -727 0
-696 695 0
-696 727 0
697 -965 -694 0
-697 965 0
-697 694 0
-698 -1 0
698 1 0
-699 -3 0
699 3 0
-700 -54 0
700 54 0
-701 -52 0
701 52 0
-702 -8 0
702 8 0
-703 -7 0
703 7 0
-704 -57 0
704 57 0
-705 -60 0
705 60 0
-706 -9 0
706 9 0
-707 -63 0
707 63 0
-708 -66 0
708 66 0
-709 -16 0
709 16 0
-710 -69 0
710 69 0
-711 -20 0
711 20 0
-712 -72 0
712 72 0
-713 -75 0
713 75 0
-714 -24 0
714 24 0
-715 -78 0
715 78 0
-716 -6 0
716 6 0
-717 -81 0
717 81 0
-718 -84 0
718 84 0
-719 -2 0
719 2 0
-720 -23 0
720 23 0
-721 -87 0
721 87 0
-722 -90 0
722 90 0
-723 -13 0
723 13 0
-724 -15 0
724 15 0
-725 -93 0
725 93 0
-726 -30 0
726 30 0
-727 -11 0
727 11 0
-728 -96 0
728 96 0
-729 -5 0
729 5 0
-730 -31 0
730 31 0
-731 -99 0
731 99 0
-732 -27 0
732 27 0
-733 -4 0
733 4 0
-734 -32 0
734 32 0
-735 -102 0
735 102 0
-736 -34 0
736 34 0
-737 -105 0
737 105 0
-738 -36 0
738 36 0
-739 -17 0
739 17 0
-740 -108 0
740 108 0
-741 -111 0
741 111 0
-742 -114 0
742 114 0
-743 -37 0
743 37 0
-744 -117 0
744 117 0
-745 -41 0
745 41 0
-746 -18 0
746 18 0
-747 -120 0
747 120 0
-748 -42 0
748 42 0
-749 -39 0
749 39 0
-750 -123 0
750 123 0
-751 -25 0
751 25 0
-752 -126 0
752 126 0
-753 -44 0
753 44 0
-754 -26 0
754 26 0
-755 -129 0
755 129 0
-756 -132 0
756 132 0
-757 -21 0
757 21 0
-758 -135 0
758 135 0
-759 -138 0
759 138 0
-760 -45 0
760 45 0
-761 -141 0
761 141 0
-762 -144 0
762 144 0
-763 -147 0
763 147 0
-764 -150 0
764 150 0
-765 -47 0
765 47 0
-766 -153 0
766 153 0
-767 -38 0
767 38 0
-768 -22 0
768 22 0
-769 -28 0
769 28 0
-770 -156 0
770 156 0
-771 -29 0
771 29 0
-772 -159 0
772 159 0
-773 -162 0
773 162 0
-774 -165 0
774 165 0
-775 -168 0
775 168 0
-776 -171 0
776 171 0
-777 -14 0
777 14 0
-778 -174 0
778 174 0
-779 -177 0
779 177 0
-780 -180 0
780 180 0
-781 -48 0
781 48 0
-782 -183 0
782 183 0
-783 -186 0
783 186 0
-784 -189 0
784 189 0
-785 -192 0
785 192 0
-786 -195 0
786 195 0
-787 -198 0
787 198 0
-788 -201 0
788 201 0
-789 -204 0
789 204 0
-790 -207 0
790 207 0
-791 -210 0
791 210 0
-792 -213 0
792 213 0
-793 -216 0
793 216 0
-794 -219 0
794 219 0
-795 -222 0
795 222 0
-796 -225 0
796 225 0
-797 -228 0
797 228 0
-798 -33 0
798 33 0
-799 -231 0
799 231 0
-800 -234 0
800 234 0
-801 -237 0
801 237 0
-802 -240 0
802 240 0
-803 -243 0
803 243 0
-804 -246 0
804 246 0
-805 -249 0
805 249 0
-806 -10 0
806 10 0
-807 -252 0
807 252 0
-808 -43 0
808 43 0
-809 -255 0
809 255 0
-810 -40 0
810 40 0
-811 -258 0
811 258 0
-812 -261 0
812 261 0
-813 -264 0
813 264 0
-814 -49 0
814 49 0
-815 -267 0
815 267 0
-816 -270 0
816 270 0
-817 -273 0
817 273 0
-818 -276 0
818 276 0
-819 -279 0
819 279 0
-820 -46 0
820 46 0
-821 -282 0
821 282 0
-822 -285 0
822 285 0
-823 -288 0
823 288 0
-824 -291 0
824 291 0
-825 -294 0
825 294 0
-826 -297 0
826 297 0
-827 -300 0
827 300 0
-828 -303 0
828 303 0
-829 -306 0
829 306 0
-830 -309 0
830 309 0
-831 -312 0
831 312 0
-832 -315 0
832 315 0
-833 -318 0
833 318 0
-834 -321 0
834 321 0
-835 -19 0
835 19 0
-836 -324 0
836 324 0
-837 -327 0
837 327 0
-838 -330 0
838 330 0
-839 -333 0
839 333 0
-840 -336 0
840 336 0
-841 -339 0
841 339 0
-842 -342 0
842 342 0
-843 -345 0
843 345 0
-844 -348 0
844 348 0
-845 -351 0
845 351 0
-846 -354 0
846 354 0
-847 -357 0
847 357 0
-848 -360 0
848 360 0
-849 -363 0
849 363 0
-850 -366 0
850 366 0
-851 -369 0
851 369 0
-852 -372 0
852 372 0
-853 -375 0
853 375 0
-854 -378 0
854 378 0
-855 -381 0
855 381 0
-856 -384 0
856 384 0
-857 -387 0
857 387 0
-858 -389 0
858 389 0
-859 -392 0
859 392 0
-860 -395 0
860 395 0
-861 -398 0
861 398 0
-862 -401 0
862 401 0
-863 -404 0
863 404 0
-864 -407 0
864 407 0
-865 -410 0
865 410 0
-866 -413 0
866 413 0
-867 -416 0
867 416 0
-868 -419 0
868 419 0
-869 -422 0
869 422 0
-870 -35 0
870 35 0
-871 -425 0
871 425 0
-872 -428 0
872 428 0
-873 -431 0
873 431 0
-874 -434 0
874 434 0
-875 -437 0
875 437 0
-876 -439 0
876 439 0
-877 -442 0
877 442 0
-878 -445 0
878 445 0
-879 -448 0
879 448 0
-880 -451 0
880 451 0
-881 -454 0
881 454 0
-882 -457 0
882 457 0
-883 -460 0
883 460 0
-884 -463 0
884 463 0
-885 -466 0
885 466 0
-886 -469 0
886 469 0
-887 -472 0
887 472 0
-888 -475 0
888 475 0
-889 -478 0
889 478 0
-890 -481 0
890 481 0
-891 -484 0
891 484 0
-892 -487 0
892 487 0
-893 -490 0
893 490 0
-894 -493 0
894 493 0
-895 -496 0
895 496 0
-896 -499 0
896 499 0
-897 -502 0
897 502 0
-898 -505 0
898 505 0
-899 -508 0
899 508 0
-900 -511 0
900 511 0
-901 -514 0
901 514 0
-902 -517 0
902 517 0
-903 -519 0
903 519 0
-904 -522 0
904 522 0
-905 -525 0
905 525 0
-906 -528 0
906 528 0
-907 -531 0
907 531 0
-908 -534 0
908 534 0
-909 -537 0
909 537 0
-910 -540 0
910 540 0
-911 -543 0
911 543 0
-912 -546 0
912 546 0
-913 -548 0
913 548 0
-914 -551 0
914 551 0
-915 -554 0
915 554 0
-916 -557 0
916 557 0
-917 -560 0
917 560 0
-918 -563 0
918 563 0
-919 -566 0
919 566 0
-920 -568 0
920 568 0
-921 -571 0
921 571 0
-922 -574 0
922 574 0
-923 -577 0
923 577 0
-924 -580 0
924 580 0
-925 -583 0
925 583 0
-926 -586 0
926 586 0
-927 -589 0
927 589 0
-928 -592 0
928 592 0
-929 -594 0
929 594 0
-930 -597 0
930 597 0
-931 -600 0
931 600 0
-932 -603 0
932 603 0
-933 -606 0
933 606 0
-934 -609 0
934 609 0
-935 -612 0
935 612 0
-936 -615 0
936 615 0
-937 -618 0
937 618 0
-938 -621 0
938 621 0
-939 -624 0
939 624 0
-940 -627 0
940 627 0
-941 -630 0
941 630 0
-942 -633 0
942 633 0
-943 -636 0
943 636 0
-944 -639 0
944 639 0
-945 -642 0
945 642 0
-946 -645 0
946 645 0
-947 -648 0
947 648 0
-948 -651 0
948 651 0
-949 -654 0
949 654 0
-950 -657 0
950 657 0
-951 -660 0
951 660 0
-952 -663 0
952 663 0
-953 -666 0
953 666 0
-954 -12 0
954 12 0
-955 -669 0
955 669 0
-956 -672 0
956 672 0
-957 -675 0
957 675 0
-958 -678 0
958 678 0
-959 -681 0
959 681 0
-960 -684 0
960 684 0
-961 -687 0
961 687 0
-962 -50 0
962 50 0
-963 -690 0
963 690 0
-964 -693 0
964 693 0
-965 -696 0
965 696 0
697 0
